Maximize
F - f1 - f2

Subject to
F - 2y21 - 6y24 - 0y86 - 6y201 - 6y240 - 2y243 - 0y263 - 4y297 - 8y329 - 2y35 - 2y37 - 8y171 - 4y121 - 4y256 - 6y166 - 8y30 - 8y204 - 2y52 = 0
f1 - 0.008069s21 - 0.008069s24 - 0.008069s86 - 0.008069s201 - 0.008069s240 - 0.008069s243 - 0.008069s263 - 0.008069s297 - 0.008069s329 - 0.008069s35 - 0.008069s37 - 0.008069s171 - 0.008069s121 - 0.008069s256 - 0.008069s166 - 0.008069s30 - 0.008069s204 - 0.008069s52  = 0
f2 - 3.73y21 - 3.78y24 - 3.65y86 - 3.85y201 - 4.14y240 - 3.87y243 - 3.90y263 - 3.61y297 - 3.72y329 - 2.14y35 - 2.23y37 - 2.29y171 - 2.21y121 - 2.15y256 - 2.32y166 - 2.27y30 - 2.42y204 - 2.00y52 = 0

x193x171x1 + x193x121x1 + x193x166x1 + x193x30x1 
<= 2
x285x86x1 + x285x297x1 + x285x329x1 + x285x171x1 + x285x121x1 + x285x166x1 + x285x30x1 
<= 1
x263x171x1 + x263x121x1 + x263x166x1 + x263x30x1 
<= 2
x86x171x1 + x86x121x1 + x86x166x1 + x86x30x1 
<= 1
x200x166x1 + x200x30x1 
<= 1
x323x86x1 + x323x243x1 + x323x263x1 + x323x297x1 + x323x329x1 + x323x171x1 + x323x121x1 + x323x166x1 + x323x30x1 
<= 1
x98x86x1 + x98x243x1 + x98x263x1 + x98x297x1 + x98x329x1 + x98x171x1 + x98x121x1 + x98x166x1 + x98x30x1 
<= 1
x146x37x2 + x146x171x2 + x146x121x2 + x146x256x2 + x146x204x2 
<= 1
x73x37x2 + x73x171x2 + x73x121x2 + x73x256x2 + x73x204x2 
<= 1
x285x21x2 + x285x297x2 + x285x329x2 + x285x37x2 + x285x171x2 + x285x121x2 + x285x256x2 + x285x204x2 
<= 1
x200x256x2 + x200x204x2 
<= 1
x251x21x2 + x251x297x2 + x251x329x2 + x251x37x2 + x251x171x2 + x251x121x2 + x251x256x2 + x251x204x2 
<= 2
x292x21x2 + x292x297x2 + x292x329x2 + x292x37x2 + x292x171x2 + x292x121x2 + x292x256x2 + x292x204x2 
<= 2
x98x21x2 + x98x297x2 + x98x329x2 + x98x37x2 + x98x171x2 + x98x121x2 + x98x256x2 + x98x204x2 
<= 1
x146x35x3 + x146x256x3 + x146x204x3 + x146x52x3 
<= 1
x73x35x3 + x73x256x3 + x73x204x3 + x73x52x3 
<= 1
x86x35x3 + x86x256x3 + x86x204x3 + x86x52x3 
<= 1
x124x204x3 + x124x52x3 
<= 2
x323x21x3 + x323x24x3 + x323x86x3 + x323x201x3 + x323x243x3 + x323x35x3 + x323x256x3 + x323x204x3 + x323x52x3 
<= 1
x12x21x3 + x12x24x3 + x12x86x3 + x12x201x3 + x12x243x3 + x12x35x3 + x12x256x3 + x12x204x3 + x12x52x3 
<= 2
x188x21x3 + x188x24x3 + x188x86x3 + x188x201x3 + x188x240x3 + x188x243x3 + x188x35x3 + x188x256x3 + x188x204x3 + x188x52x3 
<= 1


x285x21x2 + x251x21x2 + x292x21x2 + x98x21x2 
- x21x0x2
- x21x37x2 - x21x171x2 - x21x121x2 - x21x256x2 - x21x204x2 
= 0
x323x21x3 + x12x21x3 + x188x21x3 
- x21x0x3
- x21x35x3 - x21x256x3 - x21x204x3 - x21x52x3 
= 0



x323x24x3 + x12x24x3 + x188x24x3 
- x24x0x3
- x24x35x3 - x24x256x3 - x24x204x3 - x24x52x3 
= 0

x285x86x1 + x323x86x1 + x98x86x1 
- x86x0x1
- x86x171x1 - x86x121x1 - x86x166x1 - x86x30x1 
= 0

x323x86x3 + x12x86x3 + x188x86x3 
- x86x0x3
- x86x35x3 - x86x256x3 - x86x204x3 - x86x52x3 
= 0



x323x201x3 + x12x201x3 + x188x201x3 
- x201x0x3
- x201x35x3 - x201x256x3 - x201x204x3 - x201x52x3 
= 0



- x240x171x2 - x240x121x2 - x240x256x2 - x240x204x2 
= 0
x188x240x3 
- x240x0x3
- x240x256x3 - x240x204x3 - x240x52x3 
= 0

x323x243x1 + x98x243x1 
- x243x0x1
- x243x171x1 - x243x121x1 - x243x166x1 - x243x30x1 
= 0

x323x243x3 + x12x243x3 + x188x243x3 
- x243x0x3
- x243x35x3 - x243x256x3 - x243x204x3 - x243x52x3 
= 0

x323x263x1 + x98x263x1 
- x263x0x1
- x263x171x1 - x263x121x1 - x263x166x1 - x263x30x1 
= 0



x285x297x1 + x323x297x1 + x98x297x1 
- x297x0x1
- x297x171x1 - x297x121x1 - x297x166x1 - x297x30x1 
= 0
x285x297x2 + x251x297x2 + x292x297x2 + x98x297x2 
- x297x0x2
- x297x37x2 - x297x171x2 - x297x121x2 - x297x256x2 - x297x204x2 
= 0


x285x329x1 + x323x329x1 + x98x329x1 
- x329x0x1
- x329x171x1 - x329x121x1 - x329x166x1 - x329x30x1 
= 0
x285x329x2 + x251x329x2 + x292x329x2 + x98x329x2 
- x329x0x2
- x329x37x2 - x329x171x2 - x329x121x2 - x329x256x2 - x329x204x2 
= 0




x146x35x3 + x73x35x3 + x86x35x3 + x323x35x3 + x12x35x3 + x188x35x3 + x21x35x3 + x24x35x3 + x86x35x3 + x201x35x3 + x243x35x3 
- x35x0x3
- x35x256x3 - x35x204x3 - x35x52x3 
= 0


x146x37x2 + x73x37x2 + x285x37x2 + x251x37x2 + x292x37x2 + x98x37x2 + x21x37x2 + x297x37x2 + x329x37x2 
- x37x0x2
- x37x171x2 - x37x121x2 - x37x256x2 - x37x204x2 
= 0


x193x171x1 + x285x171x1 + x263x171x1 + x86x171x1 + x323x171x1 + x98x171x1 + x86x171x1 + x243x171x1 + x263x171x1 + x297x171x1 + x329x171x1 
- x171x0x1
- x171x166x1 - x171x30x1 
= 0
x146x171x2 + x73x171x2 + x285x171x2 + x251x171x2 + x292x171x2 + x98x171x2 + x21x171x2 + x240x171x2 + x297x171x2 + x329x171x2 + x37x171x2 
- x171x0x2
- x171x204x2 
= 0


x193x121x1 + x285x121x1 + x263x121x1 + x86x121x1 + x323x121x1 + x98x121x1 + x86x121x1 + x243x121x1 + x263x121x1 + x297x121x1 + x329x121x1 
- x121x0x1
- x121x166x1 - x121x30x1 
= 0
x146x121x2 + x73x121x2 + x285x121x2 + x251x121x2 + x292x121x2 + x98x121x2 + x21x121x2 + x240x121x2 + x297x121x2 + x329x121x2 + x37x121x2 
- x121x0x2
- x121x256x2 - x121x204x2 
= 0



x146x256x2 + x73x256x2 + x285x256x2 + x200x256x2 + x251x256x2 + x292x256x2 + x98x256x2 + x21x256x2 + x240x256x2 + x297x256x2 + x329x256x2 + x37x256x2 + x121x256x2 
- x256x0x2
- x256x204x2 
= 0
x146x256x3 + x73x256x3 + x86x256x3 + x323x256x3 + x12x256x3 + x188x256x3 + x21x256x3 + x24x256x3 + x86x256x3 + x201x256x3 + x240x256x3 + x243x256x3 + x35x256x3 
- x256x0x3
- x256x204x3 - x256x52x3 
= 0

x193x166x1 + x285x166x1 + x263x166x1 + x86x166x1 + x200x166x1 + x323x166x1 + x98x166x1 + x86x166x1 + x243x166x1 + x263x166x1 + x297x166x1 + x329x166x1 + x171x166x1 + x121x166x1 
- x166x0x1
- x166x30x1 
= 0



x193x30x1 + x285x30x1 + x263x30x1 + x86x30x1 + x200x30x1 + x323x30x1 + x98x30x1 + x86x30x1 + x243x30x1 + x263x30x1 + x297x30x1 + x329x30x1 + x171x30x1 + x121x30x1 + x166x30x1 
- x30x0x1

= 0




x146x204x2 + x73x204x2 + x285x204x2 + x200x204x2 + x251x204x2 + x292x204x2 + x98x204x2 + x21x204x2 + x240x204x2 + x297x204x2 + x329x204x2 + x37x204x2 + x171x204x2 + x121x204x2 + x256x204x2 
- x204x0x2

= 0
x146x204x3 + x73x204x3 + x86x204x3 + x124x204x3 + x323x204x3 + x12x204x3 + x188x204x3 + x21x204x3 + x24x204x3 + x86x204x3 + x201x204x3 + x240x204x3 + x243x204x3 + x35x204x3 + x256x204x3 
- x204x0x3

= 0



x146x52x3 + x73x52x3 + x86x52x3 + x124x52x3 + x323x52x3 + x12x52x3 + x188x52x3 + x21x52x3 + x24x52x3 + x86x52x3 + x201x52x3 + x240x52x3 + x243x52x3 + x35x52x3 + x256x52x3 
- x52x0x3

= 0

1y21 - x285x21x2 - x251x21x2 - x292x21x2 - x98x21x2 = 0
1y21 - x323x21x3 - x12x21x3 - x188x21x3 = 0
2y24 - x323x24x3 - x12x24x3 - x188x24x3 = 0
1y86 - x285x86x1 - x323x86x1 - x98x86x1 = 0
1y86 - x323x86x3 - x12x86x3 - x188x86x3 = 0
2y201 - x323x201x3 - x12x201x3 - x188x201x3 = 0
1y240 = 0
1y240 - x188x240x3 = 0
1y243 - x323x243x1 - x98x243x1 = 0
1y243 - x323x243x3 - x12x243x3 - x188x243x3 = 0
2y263 - x323x263x1 - x98x263x1 = 0
1y297 - x285x297x1 - x323x297x1 - x98x297x1 = 0
1y297 - x285x297x2 - x251x297x2 - x292x297x2 - x98x297x2 = 0
1y329 - x285x329x1 - x323x329x1 - x98x329x1 = 0
1y329 - x285x329x2 - x251x329x2 - x292x329x2 - x98x329x2 = 0
2y35 - x146x35x3 - x73x35x3 - x86x35x3 - x323x35x3 - x12x35x3 - x188x35x3 - x21x35x3 - x24x35x3 - x86x35x3 - x201x35x3 - x243x35x3 = 0
2y37 - x146x37x2 - x73x37x2 - x285x37x2 - x251x37x2 - x292x37x2 - x98x37x2 - x21x37x2 - x297x37x2 - x329x37x2 = 0
1y171 - x193x171x1 - x285x171x1 - x263x171x1 - x86x171x1 - x323x171x1 - x98x171x1 - x86x171x1 - x243x171x1 - x263x171x1 - x297x171x1 - x329x171x1 = 0
1y171 - x146x171x2 - x73x171x2 - x285x171x2 - x251x171x2 - x292x171x2 - x98x171x2 - x21x171x2 - x240x171x2 - x297x171x2 - x329x171x2 - x37x171x2 = 0
1y121 - x193x121x1 - x285x121x1 - x263x121x1 - x86x121x1 - x323x121x1 - x98x121x1 - x86x121x1 - x243x121x1 - x263x121x1 - x297x121x1 - x329x121x1 = 0
1y121 - x146x121x2 - x73x121x2 - x285x121x2 - x251x121x2 - x292x121x2 - x98x121x2 - x21x121x2 - x240x121x2 - x297x121x2 - x329x121x2 - x37x121x2 = 0
1y256 - x146x256x2 - x73x256x2 - x285x256x2 - x200x256x2 - x251x256x2 - x292x256x2 - x98x256x2 - x21x256x2 - x240x256x2 - x297x256x2 - x329x256x2 - x37x256x2 - x121x256x2 = 0
1y256 - x146x256x3 - x73x256x3 - x86x256x3 - x323x256x3 - x12x256x3 - x188x256x3 - x21x256x3 - x24x256x3 - x86x256x3 - x201x256x3 - x240x256x3 - x243x256x3 - x35x256x3 = 0
2y166 - x193x166x1 - x285x166x1 - x263x166x1 - x86x166x1 - x200x166x1 - x323x166x1 - x98x166x1 - x86x166x1 - x243x166x1 - x263x166x1 - x297x166x1 - x329x166x1 - x171x166x1 - x121x166x1 = 0
2y30 - x193x30x1 - x285x30x1 - x263x30x1 - x86x30x1 - x200x30x1 - x323x30x1 - x98x30x1 - x86x30x1 - x243x30x1 - x263x30x1 - x297x30x1 - x329x30x1 - x171x30x1 - x121x30x1 - x166x30x1 = 0
1y204 - x146x204x2 - x73x204x2 - x285x204x2 - x200x204x2 - x251x204x2 - x292x204x2 - x98x204x2 - x21x204x2 - x240x204x2 - x297x204x2 - x329x204x2 - x37x204x2 - x171x204x2 - x121x204x2 - x256x204x2 = 0
1y204 - x146x204x3 - x73x204x3 - x86x204x3 - x124x204x3 - x323x204x3 - x12x204x3 - x188x204x3 - x21x204x3 - x24x204x3 - x86x204x3 - x201x204x3 - x240x204x3 - x243x204x3 - x35x204x3 - x256x204x3 = 0
2y52 - x146x52x3 - x73x52x3 - x86x52x3 - x124x52x3 - x323x52x3 - x12x52x3 - x188x52x3 - x21x52x3 - x24x52x3 - x86x52x3 - x201x52x3 - x240x52x3 - x243x52x3 - x35x52x3 - x256x52x3 = 0

s146 - s35 + 6.902220z146z35z3 <= 5.27
s146 - s37 + 6.900539z146z37z2 <= 5.27
s146 - s171 + 6.906645z146z171z2 <= 5.27
s146 - s121 + 6.913449z146z121z2 <= 5.27
s146 - s256 + 6.920284z146z256z2 <= 5.27
s146 - s256 + 6.920284z146z256z3 <= 5.27
s146 - s204 + 6.907894z146z204z2 <= 5.27
s146 - s204 + 6.907894z146z204z3 <= 5.27
s146 - s52 + 6.947167z146z52z3 <= 5.27
s193 - s171 + 6.850381z193z171z1 <= 5.42
s193 - s121 + 6.846060z193z121z1 <= 5.42
s193 - s166 + 6.869236z193z166z1 <= 5.42
s193 - s30 + 6.869236z193z30z1 <= 5.42
s73 - s35 + 6.911409z73z35z3 <= 5.31
s73 - s37 + 6.908464z73z37z2 <= 5.31
s73 - s171 + 6.913352z73z171z2 <= 5.31
s73 - s121 + 6.920735z73z121z2 <= 5.31
s73 - s256 + 6.927853z73z256z2 <= 5.31
s73 - s256 + 6.927853z73z256z3 <= 5.31
s73 - s204 + 6.912912z73z204z2 <= 5.31
s73 - s204 + 6.912912z73z204z3 <= 5.31
s73 - s52 + 6.954961z73z52z3 <= 5.31
s285 - s21 + 6.422986z285z21z2 <= 5.20
s285 - s86 + 6.368879z285z86z1 <= 5.20
s285 - s297 + 6.383186z285z297z1 <= 5.20
s285 - s297 + 6.383186z285z297z2 <= 5.20
s285 - s329 + 6.375412z285z329z1 <= 5.20
s285 - s329 + 6.375412z285z329z2 <= 5.20
s285 - s37 + 6.572784z285z37z2 <= 5.20
s285 - s171 + 6.594734z285z171z1 <= 5.20
s285 - s171 + 6.594734z285z171z2 <= 5.20
s285 - s121 + 6.591495z285z121z1 <= 5.20
s285 - s121 + 6.591495z285z121z2 <= 5.20
s285 - s256 + 6.592748z285z256z2 <= 5.20
s285 - s166 + 6.612877z285z166z1 <= 5.20
s285 - s30 + 6.613526z285z30z1 <= 5.20
s285 - s204 + 6.621655z285z204z2 <= 5.20
s263 - s171 + 6.764545z263z171z1 <= 5.43
s263 - s121 + 6.768438z263z121z1 <= 5.43
s263 - s166 + 6.775902z263z166z1 <= 5.43
s263 - s30 + 6.780620z263z30z1 <= 5.43
s86 - s35 + 6.736841z86z35z3 <= 5.45
s86 - s171 + 6.754112z86z171z1 <= 5.45
s86 - s121 + 6.757076z86z121z1 <= 5.45
s86 - s256 + 6.762073z86z256z3 <= 5.45
s86 - s166 + 6.766642z86z166z1 <= 5.45
s86 - s30 + 6.770802z86z30z1 <= 5.45
s86 - s204 + 6.767756z86z204z3 <= 5.45
s86 - s52 + 6.786933z86z52z3 <= 5.45
s200 - s256 + 7.392448z200z256z2 <= 5.93
s200 - s166 + 7.431208z200z166z1 <= 5.93
s200 - s30 + 7.425450z200z30z1 <= 5.93
s200 - s204 + 7.450336z200z204z2 <= 5.93
s124 - s204 + 7.462297z124z204z3 <= 5.90
s124 - s52 + 7.406404z124z52z3 <= 5.90
s251 - s21 + 6.370272z251z21z2 <= 4.74
s251 - s297 + 6.330359z251z297z2 <= 4.74
s251 - s329 + 6.322675z251z329z2 <= 4.74
s251 - s37 + 6.448934z251z37z2 <= 4.74
s251 - s171 + 6.475815z251z171z2 <= 4.74
s251 - s121 + 6.466822z251z121z2 <= 4.74
s251 - s256 + 6.463933z251z256z2 <= 4.74
s251 - s204 + 6.512005z251z204z2 <= 4.74
s292 - s21 + 6.272707z292z21z2 <= 4.84
s292 - s297 + 6.234397z292z297z2 <= 4.84
s292 - s329 + 6.222394z292z329z2 <= 4.84
s292 - s37 + 6.416206z292z37z2 <= 4.84
s292 - s171 + 6.440475z292z171z2 <= 4.84
s292 - s121 + 6.435047z292z121z2 <= 4.84
s292 - s256 + 6.434751z292z256z2 <= 4.84
s292 - s204 + 6.471020z292z204z2 <= 4.84
s323 - s21 + 6.274516z323z21z3 <= 4.80
s323 - s24 + 6.230735z323z24z3 <= 4.80
s323 - s86 + 6.219658z323z86z1 <= 4.80
s323 - s86 + 6.219658z323z86z3 <= 4.80
s323 - s201 + 6.257157z323z201z3 <= 4.80
s323 - s243 + 6.263766z323z243z1 <= 4.80
s323 - s243 + 6.263766z323z243z3 <= 4.80
s323 - s263 + 6.228408z323z263z1 <= 4.80
s323 - s297 + 6.235250z323z297z1 <= 4.80
s323 - s329 + 6.225128z323z329z1 <= 4.80
s323 - s35 + 6.373552z323z35z3 <= 4.80
s323 - s171 + 6.419906z323z171z1 <= 4.80
s323 - s121 + 6.413239z323z121z1 <= 4.80
s323 - s256 + 6.412079z323z256z3 <= 4.80
s323 - s166 + 6.440009z323z166z1 <= 4.80
s323 - s30 + 6.438549z323z30z1 <= 4.80
s323 - s204 + 6.452591z323z204z3 <= 4.80
s323 - s52 + 6.423907z323z52z3 <= 4.80
s98 - s21 + 6.276251z98z21z2 <= 4.83
s98 - s86 + 6.221310z98z86z1 <= 4.83
s98 - s243 + 6.264824z98z243z1 <= 4.83
s98 - s263 + 6.229072z98z263z1 <= 4.83
s98 - s297 + 6.237235z98z297z1 <= 4.83
s98 - s297 + 6.237235z98z297z2 <= 4.83
s98 - s329 + 6.226540z98z329z1 <= 4.83
s98 - s329 + 6.226540z98z329z2 <= 4.83
s98 - s37 + 6.405732z98z37z2 <= 4.83
s98 - s171 + 6.430605z98z171z1 <= 4.83
s98 - s171 + 6.430605z98z171z2 <= 4.83
s98 - s121 + 6.424513z98z121z1 <= 4.83
s98 - s121 + 6.424513z98z121z2 <= 4.83
s98 - s256 + 6.423761z98z256z2 <= 4.83
s98 - s166 + 6.450430z98z166z1 <= 4.83
s98 - s30 + 6.449349z98z30z1 <= 4.83
s98 - s204 + 6.462336z98z204z2 <= 4.83
s12 - s21 + 6.282571z12z21z3 <= 4.86
s12 - s24 + 6.237718z12z24z3 <= 4.86
s12 - s86 + 6.227597z12z86z3 <= 4.86
s12 - s201 + 6.263901z12z201z3 <= 4.86
s12 - s243 + 6.270457z12z243z3 <= 4.86
s12 - s35 + 6.401274z12z35z3 <= 4.86
s12 - s256 + 6.439213z12z256z3 <= 4.86
s12 - s204 + 6.475999z12z204z3 <= 4.86
s12 - s52 + 6.453064z12z52z3 <= 4.86
s188 - s21 + 5.235428z188z21z3 <= 3.49
s188 - s24 + 5.192337z188z24z3 <= 3.49
s188 - s86 + 5.180761z188z86z3 <= 3.49
s188 - s201 + 5.218837z188z201z3 <= 3.49
s188 - s240 + 5.215211z188z240z3 <= 3.49
s188 - s243 + 5.225464z188z243z3 <= 3.49
s188 - s35 + 5.301906z188z35z3 <= 3.49
s188 - s256 + 5.340723z188z256z3 <= 3.49
s188 - s204 + 5.388348z188z204z3 <= 3.49
s188 - s52 + 5.347754z188z52z3 <= 3.49
s21 - s35 + 7.714064z21z35z3 <= 6.44
s21 - s37 + 7.713415z21z37z2 <= 6.44
s21 - s171 + 7.721977z21z171z2 <= 6.44
s21 - s121 + 7.727364z21z121z2 <= 6.44
s21 - s256 + 7.733636z21z256z2 <= 6.44
s21 - s256 + 7.733636z21z256z3 <= 6.44
s21 - s204 + 7.729444z21z204z2 <= 6.44
s21 - s204 + 7.729444z21z204z3 <= 6.44
s21 - s52 + 7.760069z21z52z3 <= 6.44
s24 - s35 + 7.660666z24z35z3 <= 6.36
s24 - s256 + 7.684414z24z256z3 <= 6.36
s24 - s204 + 7.686939z24z204z3 <= 6.36
s24 - s52 + 7.709794z24z52z3 <= 6.36
s86 - s35 + 7.708598z86z35z3 <= 6.42
s86 - s171 + 7.725869z86z171z1 <= 6.42
s86 - s121 + 7.728833z86z121z1 <= 6.42
s86 - s256 + 7.733829z86z256z3 <= 6.42
s86 - s166 + 7.738399z86z166z1 <= 6.42
s86 - s30 + 7.742559z86z30z1 <= 6.42
s86 - s204 + 7.739513z86z204z3 <= 6.42
s86 - s52 + 7.758690z86z52z3 <= 6.42
s201 - s35 + 7.650074z201z35z3 <= 6.35
s201 - s256 + 7.671109z201z256z3 <= 6.35
s201 - s204 + 7.668678z201z204z3 <= 6.35
s201 - s52 + 7.697243z201z52z3 <= 6.35
s240 - s171 + 7.556402z240z171z2 <= 6.20
s240 - s121 + 7.561540z240z121z2 <= 6.20
s240 - s256 + 7.567635z240z256z2 <= 6.20
s240 - s256 + 7.567635z240z256z3 <= 6.20
s240 - s204 + 7.563807z240z204z2 <= 6.20
s240 - s204 + 7.563807z240z204z3 <= 6.20
s240 - s52 + 7.593842z240z52z3 <= 6.20
s243 - s35 + 7.650296z243z35z3 <= 6.35
s243 - s171 + 7.659265z243z171z1 <= 6.35
s243 - s121 + 7.664466z243z121z1 <= 6.35
s243 - s256 + 7.670624z243z256z3 <= 6.35
s243 - s166 + 7.669026z243z166z1 <= 6.35
s243 - s30 + 7.674414z243z30z1 <= 6.35
s243 - s204 + 7.666930z243z204z3 <= 6.35
s243 - s52 + 7.696923z243z52z3 <= 6.35
s263 - s171 + 7.634797z263z171z1 <= 6.30
s263 - s121 + 7.638690z263z121z1 <= 6.30
s263 - s166 + 7.646153z263z166z1 <= 6.30
s263 - s30 + 7.650872z263z30z1 <= 6.30
s297 - s37 + 7.727288z297z37z2 <= 6.45
s297 - s171 + 7.739444z297z171z1 <= 6.45
s297 - s171 + 7.739444z297z171z2 <= 6.45
s297 - s121 + 7.742878z297z121z1 <= 6.45
s297 - s121 + 7.742878z297z121z2 <= 6.45
s297 - s256 + 7.748142z297z256z2 <= 6.45
s297 - s166 + 7.751478z297z166z1 <= 6.45
s297 - s30 + 7.755868z297z30z1 <= 6.45
s297 - s204 + 7.752067z297z204z2 <= 6.45
s329 - s37 + 7.688142z329z37z2 <= 6.39
s329 - s171 + 7.700483z329z171z1 <= 6.39
s329 - s171 + 7.700483z329z171z2 <= 6.39
s329 - s121 + 7.703829z329z121z1 <= 6.39
s329 - s121 + 7.703829z329z121z2 <= 6.39
s329 - s256 + 7.709026z329z256z2 <= 6.39
s329 - s166 + 7.712559z329z166z1 <= 6.39
s329 - s30 + 7.716938z329z30z1 <= 6.39
s329 - s204 + 7.713110z329z204z2 <= 6.39
s35 - s256 + 8.368873z35z256z3 <= 7.33
s35 - s204 + 8.423571z35z204z3 <= 7.33
s35 - s52 + 8.383748z35z52z3 <= 7.33
s37 - s171 + 8.357488z37z171z2 <= 7.33
s37 - s121 + 8.348856z37z121z2 <= 7.33
s37 - s256 + 8.351082z37z256z2 <= 7.33
s37 - s204 + 8.396999z37z204z2 <= 7.33
s171 - s166 + 8.401082z171z166z1 <= 7.38
s171 - s30 + 8.398856z171z30z1 <= 7.38
s171 - s204 + 8.420000z171z204z2 <= 7.38
s121 - s256 + 8.399428z121z256z2 <= 7.39
s121 - s166 + 8.423333z121z166z1 <= 7.39
s121 - s30 + 8.417487z121z30z1 <= 7.39
s121 - s204 + 8.443748z121z204z2 <= 7.39
s256 - s204 + 8.461464z256z204z2 <= 7.40
s256 - s204 + 8.461464z256z204z3 <= 7.40
s256 - s52 + 8.427487z256z52z3 <= 7.40
s166 - s30 + 8.449429z166z30z1 <= 7.44

x146x35x3 - 2z146z35z3 <= 0
x146x37x2 - 2z146z37z2 <= 0
x146x171x2 - 1z146z171z2 <= 0
x146x121x2 - 1z146z121z2 <= 0
x146x256x2 - 1z146z256z2 <= 0
x146x256x3 - 1z146z256z3 <= 0
x146x204x2 - 1z146z204z2 <= 0
x146x204x3 - 1z146z204z3 <= 0
x146x52x3 - 2z146z52z3 <= 0
x193x171x1 - 1z193z171z1 <= 0
x193x121x1 - 1z193z121z1 <= 0
x193x166x1 - 2z193z166z1 <= 0
x193x30x1 - 2z193z30z1 <= 0
x73x35x3 - 2z73z35z3 <= 0
x73x37x2 - 2z73z37z2 <= 0
x73x171x2 - 1z73z171z2 <= 0
x73x121x2 - 1z73z121z2 <= 0
x73x256x2 - 1z73z256z2 <= 0
x73x256x3 - 1z73z256z3 <= 0
x73x204x2 - 1z73z204z2 <= 0
x73x204x3 - 1z73z204z3 <= 0
x73x52x3 - 2z73z52z3 <= 0
x285x21x2 - 1z285z21z2 <= 0
x285x86x1 - 1z285z86z1 <= 0
x285x297x1 - 1z285z297z1 <= 0
x285x297x2 - 1z285z297z2 <= 0
x285x329x1 - 1z285z329z1 <= 0
x285x329x2 - 1z285z329z2 <= 0
x285x37x2 - 2z285z37z2 <= 0
x285x171x1 - 1z285z171z1 <= 0
x285x171x2 - 1z285z171z2 <= 0
x285x121x1 - 1z285z121z1 <= 0
x285x121x2 - 1z285z121z2 <= 0
x285x256x2 - 1z285z256z2 <= 0
x285x166x1 - 2z285z166z1 <= 0
x285x30x1 - 2z285z30z1 <= 0
x285x204x2 - 1z285z204z2 <= 0
x263x171x1 - 1z263z171z1 <= 0
x263x121x1 - 1z263z121z1 <= 0
x263x166x1 - 2z263z166z1 <= 0
x263x30x1 - 2z263z30z1 <= 0
x86x35x3 - 2z86z35z3 <= 0
x86x171x1 - 1z86z171z1 <= 0
x86x121x1 - 1z86z121z1 <= 0
x86x256x3 - 1z86z256z3 <= 0
x86x166x1 - 2z86z166z1 <= 0
x86x30x1 - 2z86z30z1 <= 0
x86x204x3 - 1z86z204z3 <= 0
x86x52x3 - 2z86z52z3 <= 0
x200x256x2 - 1z200z256z2 <= 0
x200x166x1 - 2z200z166z1 <= 0
x200x30x1 - 2z200z30z1 <= 0
x200x204x2 - 1z200z204z2 <= 0
x124x204x3 - 1z124z204z3 <= 0
x124x52x3 - 2z124z52z3 <= 0
x251x21x2 - 1z251z21z2 <= 0
x251x297x2 - 1z251z297z2 <= 0
x251x329x2 - 1z251z329z2 <= 0
x251x37x2 - 2z251z37z2 <= 0
x251x171x2 - 1z251z171z2 <= 0
x251x121x2 - 1z251z121z2 <= 0
x251x256x2 - 1z251z256z2 <= 0
x251x204x2 - 1z251z204z2 <= 0
x292x21x2 - 1z292z21z2 <= 0
x292x297x2 - 1z292z297z2 <= 0
x292x329x2 - 1z292z329z2 <= 0
x292x37x2 - 2z292z37z2 <= 0
x292x171x2 - 1z292z171z2 <= 0
x292x121x2 - 1z292z121z2 <= 0
x292x256x2 - 1z292z256z2 <= 0
x292x204x2 - 1z292z204z2 <= 0
x323x21x3 - 1z323z21z3 <= 0
x323x24x3 - 2z323z24z3 <= 0
x323x86x1 - 1z323z86z1 <= 0
x323x86x3 - 1z323z86z3 <= 0
x323x201x3 - 2z323z201z3 <= 0
x323x243x1 - 1z323z243z1 <= 0
x323x243x3 - 1z323z243z3 <= 0
x323x263x1 - 2z323z263z1 <= 0
x323x297x1 - 1z323z297z1 <= 0
x323x329x1 - 1z323z329z1 <= 0
x323x35x3 - 2z323z35z3 <= 0
x323x171x1 - 1z323z171z1 <= 0
x323x121x1 - 1z323z121z1 <= 0
x323x256x3 - 1z323z256z3 <= 0
x323x166x1 - 2z323z166z1 <= 0
x323x30x1 - 2z323z30z1 <= 0
x323x204x3 - 1z323z204z3 <= 0
x323x52x3 - 2z323z52z3 <= 0
x98x21x2 - 1z98z21z2 <= 0
x98x86x1 - 1z98z86z1 <= 0
x98x243x1 - 1z98z243z1 <= 0
x98x263x1 - 2z98z263z1 <= 0
x98x297x1 - 1z98z297z1 <= 0
x98x297x2 - 1z98z297z2 <= 0
x98x329x1 - 1z98z329z1 <= 0
x98x329x2 - 1z98z329z2 <= 0
x98x37x2 - 2z98z37z2 <= 0
x98x171x1 - 1z98z171z1 <= 0
x98x171x2 - 1z98z171z2 <= 0
x98x121x1 - 1z98z121z1 <= 0
x98x121x2 - 1z98z121z2 <= 0
x98x256x2 - 1z98z256z2 <= 0
x98x166x1 - 2z98z166z1 <= 0
x98x30x1 - 2z98z30z1 <= 0
x98x204x2 - 1z98z204z2 <= 0
x12x21x3 - 1z12z21z3 <= 0
x12x24x3 - 2z12z24z3 <= 0
x12x86x3 - 1z12z86z3 <= 0
x12x201x3 - 2z12z201z3 <= 0
x12x243x3 - 1z12z243z3 <= 0
x12x35x3 - 2z12z35z3 <= 0
x12x256x3 - 1z12z256z3 <= 0
x12x204x3 - 1z12z204z3 <= 0
x12x52x3 - 2z12z52z3 <= 0
x188x21x3 - 1z188z21z3 <= 0
x188x24x3 - 2z188z24z3 <= 0
x188x86x3 - 1z188z86z3 <= 0
x188x201x3 - 2z188z201z3 <= 0
x188x240x3 - 1z188z240z3 <= 0
x188x243x3 - 1z188z243z3 <= 0
x188x35x3 - 2z188z35z3 <= 0
x188x256x3 - 1z188z256z3 <= 0
x188x204x3 - 1z188z204z3 <= 0
x188x52x3 - 2z188z52z3 <= 0
x21x35x3 - 2z21z35z3 <= 0
x21x37x2 - 2z21z37z2 <= 0
x21x171x2 - 1z21z171z2 <= 0
x21x121x2 - 1z21z121z2 <= 0
x21x256x2 - 1z21z256z2 <= 0
x21x256x3 - 1z21z256z3 <= 0
x21x204x2 - 1z21z204z2 <= 0
x21x204x3 - 1z21z204z3 <= 0
x21x52x3 - 2z21z52z3 <= 0
x21x0x2 <= 1
x21x0x3 <= 1
x24x35x3 - 2z24z35z3 <= 0
x24x256x3 - 1z24z256z3 <= 0
x24x204x3 - 1z24z204z3 <= 0
x24x52x3 - 2z24z52z3 <= 0
x24x0x3 <= 2
x86x35x3 - 2z86z35z3 <= 0
x86x171x1 - 1z86z171z1 <= 0
x86x121x1 - 1z86z121z1 <= 0
x86x256x3 - 1z86z256z3 <= 0
x86x166x1 - 2z86z166z1 <= 0
x86x30x1 - 2z86z30z1 <= 0
x86x204x3 - 1z86z204z3 <= 0
x86x52x3 - 2z86z52z3 <= 0
x86x0x1 <= 1
x86x0x3 <= 1
x201x35x3 - 2z201z35z3 <= 0
x201x256x3 - 1z201z256z3 <= 0
x201x204x3 - 1z201z204z3 <= 0
x201x52x3 - 2z201z52z3 <= 0
x201x0x3 <= 2
x240x171x2 - 1z240z171z2 <= 0
x240x121x2 - 1z240z121z2 <= 0
x240x256x2 - 1z240z256z2 <= 0
x240x256x3 - 1z240z256z3 <= 0
x240x204x2 - 1z240z204z2 <= 0
x240x204x3 - 1z240z204z3 <= 0
x240x52x3 - 2z240z52z3 <= 0
x240x0x2 <= 1
x240x0x3 <= 1
x243x35x3 - 2z243z35z3 <= 0
x243x171x1 - 1z243z171z1 <= 0
x243x121x1 - 1z243z121z1 <= 0
x243x256x3 - 1z243z256z3 <= 0
x243x166x1 - 2z243z166z1 <= 0
x243x30x1 - 2z243z30z1 <= 0
x243x204x3 - 1z243z204z3 <= 0
x243x52x3 - 2z243z52z3 <= 0
x243x0x1 <= 1
x243x0x3 <= 1
x263x171x1 - 1z263z171z1 <= 0
x263x121x1 - 1z263z121z1 <= 0
x263x166x1 - 2z263z166z1 <= 0
x263x30x1 - 2z263z30z1 <= 0
x263x0x1 <= 2
x297x37x2 - 2z297z37z2 <= 0
x297x171x1 - 1z297z171z1 <= 0
x297x171x2 - 1z297z171z2 <= 0
x297x121x1 - 1z297z121z1 <= 0
x297x121x2 - 1z297z121z2 <= 0
x297x256x2 - 1z297z256z2 <= 0
x297x166x1 - 2z297z166z1 <= 0
x297x30x1 - 2z297z30z1 <= 0
x297x204x2 - 1z297z204z2 <= 0
x297x0x1 <= 1
x297x0x2 <= 1
x329x37x2 - 2z329z37z2 <= 0
x329x171x1 - 1z329z171z1 <= 0
x329x171x2 - 1z329z171z2 <= 0
x329x121x1 - 1z329z121z1 <= 0
x329x121x2 - 1z329z121z2 <= 0
x329x256x2 - 1z329z256z2 <= 0
x329x166x1 - 2z329z166z1 <= 0
x329x30x1 - 2z329z30z1 <= 0
x329x204x2 - 1z329z204z2 <= 0
x329x0x1 <= 1
x329x0x2 <= 1
x35x256x3 - 1z35z256z3 <= 0
x35x204x3 - 1z35z204z3 <= 0
x35x52x3 - 2z35z52z3 <= 0
x35x0x3 <= 2
x37x171x2 - 1z37z171z2 <= 0
x37x121x2 - 1z37z121z2 <= 0
x37x256x2 - 1z37z256z2 <= 0
x37x204x2 - 1z37z204z2 <= 0
x37x0x2 <= 2
x171x166x1 - 2z171z166z1 <= 0
x171x30x1 - 2z171z30z1 <= 0
x171x204x2 - 1z171z204z2 <= 0
x171x0x1 <= 1
x171x0x2 <= 1
x121x256x2 - 1z121z256z2 <= 0
x121x166x1 - 2z121z166z1 <= 0
x121x30x1 - 2z121z30z1 <= 0
x121x204x2 - 1z121z204z2 <= 0
x121x0x1 <= 1
x121x0x2 <= 1
x256x204x2 - 1z256z204z2 <= 0
x256x204x3 - 1z256z204z3 <= 0
x256x52x3 - 2z256z52z3 <= 0
x256x0x2 <= 1
x256x0x3 <= 1
x166x30x1 - 2z166z30z1 <= 0
x166x0x1 <= 2
x30x0x1 <= 2
x204x0x2 <= 1
x204x0x3 <= 1
x52x0x3 <= 2

Bounds
s146 = 5.266645
s193 = 5.421377
s73 = 5.306099
s285 = 5.202079
s263 = 5.429748
s86 = 5.448243
s200 = 5.934239
s124 = 5.900000
s251 = 4.742330
s292 = 4.835900
s323 = 4.799870
s98 = 4.832980
s12 = 4.863790
s188 = 3.487780
6.000000 <= s21 <= 6.440000
6.000000 <= s24 <= 6.360000
6.000000 <= s86 <= 6.420000
6.000000 <= s201 <= 6.350000
6.000000 <= s240 <= 6.200000
6.000000 <= s243 <= 6.350000
6.000000 <= s263 <= 6.300000
6.000000 <= s297 <= 6.450000
6.000000 <= s329 <= 6.390000
6.330000 <= s35 <= 7.330000
6.330000 <= s37 <= 7.330000
6.380000 <= s171 <= 7.380000
6.390000 <= s121 <= 7.390000
6.400000 <= s256 <= 7.400000
6.440000 <= s166 <= 7.440000
6.450000 <= s30 <= 7.450000
6.470000 <= s204 <= 7.470000
6.480000 <= s52 <= 7.480000

General
x146x35x3 x146x37x2 x146x171x2 x146x121x2 x146x256x2 x146x256x3 x146x204x2 x146x204x3 x146x52x3 
x193x171x1 x193x121x1 x193x166x1 x193x30x1 
x73x35x3 x73x37x2 x73x171x2 x73x121x2 x73x256x2 x73x256x3 x73x204x2 x73x204x3 x73x52x3 
x285x21x2 x285x86x1 x285x297x1 x285x297x2 x285x329x1 x285x329x2 x285x37x2 x285x171x1 x285x171x2 x285x121x1 x285x121x2 x285x256x2 x285x166x1 x285x30x1 x285x204x2 
x263x171x1 x263x121x1 x263x166x1 x263x30x1 
x86x35x3 x86x171x1 x86x121x1 x86x256x3 x86x166x1 x86x30x1 x86x204x3 x86x52x3 
x200x256x2 x200x166x1 x200x30x1 x200x204x2 
x124x204x3 x124x52x3 
x251x21x2 x251x297x2 x251x329x2 x251x37x2 x251x171x2 x251x121x2 x251x256x2 x251x204x2 
x292x21x2 x292x297x2 x292x329x2 x292x37x2 x292x171x2 x292x121x2 x292x256x2 x292x204x2 
x323x21x3 x323x24x3 x323x86x1 x323x86x3 x323x201x3 x323x243x1 x323x243x3 x323x263x1 x323x297x1 x323x329x1 x323x35x3 x323x171x1 x323x121x1 x323x256x3 x323x166x1 x323x30x1 x323x204x3 x323x52x3 
x98x21x2 x98x86x1 x98x243x1 x98x263x1 x98x297x1 x98x297x2 x98x329x1 x98x329x2 x98x37x2 x98x171x1 x98x171x2 x98x121x1 x98x121x2 x98x256x2 x98x166x1 x98x30x1 x98x204x2 
x12x21x3 x12x24x3 x12x86x3 x12x201x3 x12x243x3 x12x35x3 x12x256x3 x12x204x3 x12x52x3 
x188x21x3 x188x24x3 x188x86x3 x188x201x3 x188x240x3 x188x243x3 x188x35x3 x188x256x3 x188x204x3 x188x52x3 
x21x35x3 x21x37x2 x21x171x2 x21x121x2 x21x256x2 x21x256x3 x21x204x2 x21x204x3 x21x52x3 x21x0x2 x21x0x3 
x24x35x3 x24x256x3 x24x204x3 x24x52x3 x24x0x3 
x86x35x3 x86x171x1 x86x121x1 x86x256x3 x86x166x1 x86x30x1 x86x204x3 x86x52x3 x86x0x1 x86x0x3 
x201x35x3 x201x256x3 x201x204x3 x201x52x3 x201x0x3 
x240x171x2 x240x121x2 x240x256x2 x240x256x3 x240x204x2 x240x204x3 x240x52x3 x240x0x2 x240x0x3 
x243x35x3 x243x171x1 x243x121x1 x243x256x3 x243x166x1 x243x30x1 x243x204x3 x243x52x3 x243x0x1 x243x0x3 
x263x171x1 x263x121x1 x263x166x1 x263x30x1 x263x0x1 
x297x37x2 x297x171x1 x297x171x2 x297x121x1 x297x121x2 x297x256x2 x297x166x1 x297x30x1 x297x204x2 x297x0x1 x297x0x2 
x329x37x2 x329x171x1 x329x171x2 x329x121x1 x329x121x2 x329x256x2 x329x166x1 x329x30x1 x329x204x2 x329x0x1 x329x0x2 
x35x256x3 x35x204x3 x35x52x3 x35x0x3 
x37x171x2 x37x121x2 x37x256x2 x37x204x2 x37x0x2 
x171x166x1 x171x30x1 x171x204x2 x171x0x1 x171x0x2 
x121x256x2 x121x166x1 x121x30x1 x121x204x2 x121x0x1 x121x0x2 
x256x204x2 x256x204x3 x256x52x3 x256x0x2 x256x0x3 
x166x30x1 x166x0x1 
x30x0x1 
x204x0x2 x204x0x3 
x52x0x3 

Binaries
y21 y24 y86 y201 y240 y243 y263 y297 y329 y35 y37 y171 y121 y256 y166 y30 y204 y52 
z146z35z3 z146z37z2 z146z171z2 z146z121z2 z146z256z2 z146z256z3 z146z204z2 z146z204z3 z146z52z3 
z193z171z1 z193z121z1 z193z166z1 z193z30z1 
z73z35z3 z73z37z2 z73z171z2 z73z121z2 z73z256z2 z73z256z3 z73z204z2 z73z204z3 z73z52z3 
z285z21z2 z285z86z1 z285z297z1 z285z297z2 z285z329z1 z285z329z2 z285z37z2 z285z171z1 z285z171z2 z285z121z1 z285z121z2 z285z256z2 z285z166z1 z285z30z1 z285z204z2 
z263z171z1 z263z121z1 z263z166z1 z263z30z1 
z86z35z3 z86z171z1 z86z121z1 z86z256z3 z86z166z1 z86z30z1 z86z204z3 z86z52z3 
z200z256z2 z200z166z1 z200z30z1 z200z204z2 
z124z204z3 z124z52z3 
z251z21z2 z251z297z2 z251z329z2 z251z37z2 z251z171z2 z251z121z2 z251z256z2 z251z204z2 
z292z21z2 z292z297z2 z292z329z2 z292z37z2 z292z171z2 z292z121z2 z292z256z2 z292z204z2 
z323z21z3 z323z24z3 z323z86z1 z323z86z3 z323z201z3 z323z243z1 z323z243z3 z323z263z1 z323z297z1 z323z329z1 z323z35z3 z323z171z1 z323z121z1 z323z256z3 z323z166z1 z323z30z1 z323z204z3 z323z52z3 
z98z21z2 z98z86z1 z98z243z1 z98z263z1 z98z297z1 z98z297z2 z98z329z1 z98z329z2 z98z37z2 z98z171z1 z98z171z2 z98z121z1 z98z121z2 z98z256z2 z98z166z1 z98z30z1 z98z204z2 
z12z21z3 z12z24z3 z12z86z3 z12z201z3 z12z243z3 z12z35z3 z12z256z3 z12z204z3 z12z52z3 
z188z21z3 z188z24z3 z188z86z3 z188z201z3 z188z240z3 z188z243z3 z188z35z3 z188z256z3 z188z204z3 z188z52z3 
z21z35z3 z21z37z2 z21z171z2 z21z121z2 z21z256z2 z21z256z3 z21z204z2 z21z204z3 z21z52z3 
z24z35z3 z24z256z3 z24z204z3 z24z52z3 
z86z35z3 z86z171z1 z86z121z1 z86z256z3 z86z166z1 z86z30z1 z86z204z3 z86z52z3 
z201z35z3 z201z256z3 z201z204z3 z201z52z3 
z240z171z2 z240z121z2 z240z256z2 z240z256z3 z240z204z2 z240z204z3 z240z52z3 
z243z35z3 z243z171z1 z243z121z1 z243z256z3 z243z166z1 z243z30z1 z243z204z3 z243z52z3 
z263z171z1 z263z121z1 z263z166z1 z263z30z1 
z297z37z2 z297z171z1 z297z171z2 z297z121z1 z297z121z2 z297z256z2 z297z166z1 z297z30z1 z297z204z2 
z329z37z2 z329z171z1 z329z171z2 z329z121z1 z329z121z2 z329z256z2 z329z166z1 z329z30z1 z329z204z2 
z35z256z3 z35z204z3 z35z52z3 
z37z171z2 z37z121z2 z37z256z2 z37z204z2 
z171z166z1 z171z30z1 z171z204z2 
z121z256z2 z121z166z1 z121z30z1 z121z204z2 
z256z204z2 z256z204z3 z256z52z3 
z166z30z1 




End